37
[-1, 46, 0, 43, 0, 42, 73, 97, 0, 0, 0, 0, 0, 34, 0, 0, 0, 95, 24, 0, 64, 0, 81, 0, 0, 33, 57, 45, 0, 6, 25, 53, 16, 0, 0, 58, 9, 
46, -1, 59, 43, 83, 0, 0, 0, 72, 26, 0, 0, 51, 0, 52, 0, 86, 62, 0, 0, 0, 0, 0, 46, 0, 65, 85, 44, 0, 44, 88, 72, 68, 0, 0, 68, 76, 
0, 59, -1, 0, 90, 100, 5, 0, 4, 0, 74, 98, 0, 0, 98, 54, 0, 53, 5, 0, 10, 56, 0, 0, 0, 0, 29, 0, 98, 87, 81, 20, 0, 35, 0, 0, 8, 
43, 43, 0, -1, 97, 0, 0, 0, 0, 0, 71, 0, 0, 0, 0, 0, 0, 37, 24, 55, 34, 0, 0, 0, 0, 0, 0, 91, 0, 57, 6, 0, 0, 93, 91, 0, 63, 
0, 83, 90, 97, -1, 0, 66, 0, 0, 12, 0, 0, 48, 0, 60, 0, 7, 45, 0, 3, 97, 84, 27, 47, 7, 22, 0, 0, 64, 0, 0, 0, 0, 96, 56, 0, 29, 
42, 0, 100, 0, 0, -1, 0, 0, 23, 81, 23, 26, 0, 44, 0, 0, 10, 0, 45, 4, 91, 35, 53, 0, 0, 0, 29, 11, 7, 0, 34, 20, 0, 34, 0, 30, 0, 
73, 0, 5, 0, 66, 0, -1, 0, 0, 99, 0, 91, 0, 19, 35, 13, 80, 49, 0, 82, 17, 78, 56, 0, 0, 60, 0, 96, 0, 41, 43, 0, 0, 33, 0, 0, 0, 
97, 0, 0, 0, 0, 0, 0, -1, 82, 31, 0, 0, 84, 61, 31, 14, 66, 0, 83, 29, 0, 4, 8, 4, 69, 61, 54, 12, 85, 0, 0, 29, 67, 0, 0, 22, 0, 
0, 72, 4, 0, 0, 23, 0, 82, -1, 0, 0, 53, 0, 13, 0, 0, 0, 47, 77, 0, 0, 9, 0, 74, 0, 37, 0, 0, 87, 0, 72, 96, 0, 90, 0, 69, 37, 
0, 26, 0, 0, 12, 81, 99, 31, 0, -1, 0, 26, 0, 82, 0, 0, 65, 36, 32, 95, 59, 0, 0, 0, 24, 0, 0, 50, 0, 0, 25, 0, 71, 0, 0, 0, 0, 
0, 0, 74, 71, 0, 23, 0, 0, 0, 0, -1, 0, 0, 0, 0, 0, 0, 43, 32, 25, 0, 39, 0, 0, 0, 23, 0, 35, 69, 0, 0, 67, 64, 0, 0, 0, 0, 
0, 0, 98, 0, 0, 26, 91, 0, 53, 26, 0, -1, 0, 0, 0, 19, 81, 0, 39, 20, 55, 0, 0, 79, 32, 52, 0, 0, 70, 0, 32, 47, 55, 0, 62, 28, 92, 
0, 51, 0, 0, 48, 0, 0, 84, 0, 0, 0, 0, -1, 7, 0, 39, 95, 0, 0, 0, 0, 47, 0, 61, 35, 0, 27, 0, 83, 5, 0, 0, 63, 0, 81, 59, 56, 
34, 0, 0, 0, 0, 44, 19, 61, 13, 82, 0, 0, 7, -1, 0, 0, 6, 71, 56, 8, 27, 0, 0, 15, 0, 0, 0, 48, 0, 0, 0, 0, 0, 0, 86, 0, 0, 
0, 52, 98, 0, 60, 0, 35, 31, 0, 0, 0, 0, 0, 0, -1, 0, 0, 0, 16, 45, 0, 0, 50, 54, 82, 36, 12, 9, 35, 0, 0, 0, 0, 41, 0, 71, 0, 
0, 0, 54, 0, 0, 0, 13, 14, 0, 0, 0, 19, 39, 0, 0, -1, 0, 19, 21, 35, 52, 0, 4, 0, 0, 37, 78, 94, 10, 31, 0, 39, 15, 96, 92, 44, 3, 
0, 86, 0, 0, 7, 10, 80, 66, 0, 65, 0, 81, 95, 6, 0, 0, -1, 0, 17, 0, 24, 0, 0, 0, 0, 0, 30, 7, 35, 0, 51, 87, 19, 93, 89, 0, 0, 
95, 62, 53, 37, 45, 0, 49, 0, 47, 36, 43, 0, 0, 71, 0, 19, 0, -1, 51, 0, 71, 25, 0, 37, 0, 29, 15, 5, 0, 0, 61, 82, 0, 38, 21, 0, 2, 
24, 0, 5, 24, 0, 45, 0, 83, 77, 32, 32, 39, 0, 56, 16, 21, 17, 51, -1, 0, 66, 32, 77, 0, 0, 89, 0, 0, 39, 0, 0, 38, 0, 41, 0, 0, 76, 
0, 0, 0, 55, 3, 4, 82, 29, 0, 95, 25, 20, 0, 8, 45, 35, 0, 0, 0, -1, 0, 0, 0, 0, 0, 12, 77, 14, 0, 0, 38, 43, 9, 28, 57, 77, 42, 
64, 0, 10, 34, 97, 91, 17, 0, 0, 59, 0, 55, 0, 27, 0, 52, 24, 71, 66, 0, -1, 3, 0, 0, 0, 0, 0, 0, 0, 80, 0, 0, 34, 82, 0, 46, 0, 
0, 0, 56, 0, 84, 35, 78, 4, 9, 0, 39, 0, 47, 0, 0, 0, 0, 25, 32, 0, 3, -1, 0, 41, 19, 36, 2, 0, 0, 13, 70, 95, 85, 26, 0, 9, 0, 
81, 0, 0, 0, 27, 53, 56, 8, 0, 0, 0, 0, 0, 0, 50, 4, 0, 0, 77, 0, 0, 0, -1, 29, 68, 0, 0, 0, 99, 0, 0, 41, 72, 0, 76, 62, 49, 
0, 46, 0, 0, 47, 0, 0, 4, 74, 0, 0, 79, 61, 15, 54, 0, 0, 37, 0, 0, 0, 41, 29, -1, 45, 0, 0, 86, 89, 77, 85, 83, 0, 0, 60, 0, 0, 
0, 0, 0, 0, 7, 0, 0, 69, 0, 24, 0, 32, 35, 0, 82, 0, 0, 0, 0, 0, 0, 19, 68, 45, -1, 53, 0, 0, 77, 0, 0, 0, 87, 0, 0, 0, 3, 
33, 65, 0, 0, 22, 0, 60, 61, 37, 0, 23, 52, 0, 0, 36, 37, 0, 29, 89, 12, 0, 36, 0, 0, 53, -1, 0, 34, 99, 0, 0, 41, 72, 73, 0, 0, 5, 
57, 85, 29, 0, 0, 29, 0, 54, 0, 0, 0, 0, 27, 0, 12, 78, 30, 15, 0, 77, 0, 2, 0, 0, 0, 0, -1, 0, 0, 0, 0, 5, 47, 0, 9, 0, 11, 
45, 44, 0, 91, 0, 11, 96, 12, 0, 50, 35, 0, 0, 48, 9, 94, 7, 5, 0, 14, 0, 0, 0, 86, 0, 34, 0, -1, 0, 25, 60, 59, 0, 0, 0, 4, 0, 
0, 0, 98, 0, 64, 7, 0, 85, 87, 0, 69, 70, 83, 0, 35, 10, 35, 0, 39, 0, 0, 0, 99, 89, 77, 99, 0, 0, -1, 75, 86, 24, 69, 0, 65, 19, 93, 
6, 44, 87, 57, 0, 0, 41, 0, 0, 0, 0, 0, 5, 0, 0, 31, 0, 0, 0, 0, 80, 13, 0, 77, 0, 0, 0, 25, 75, -1, 0, 49, 97, 0, 66, 15, 0, 
25, 88, 81, 6, 0, 34, 43, 0, 72, 25, 0, 32, 0, 0, 0, 0, 51, 61, 0, 38, 0, 70, 0, 85, 0, 0, 0, 60, 86, 0, -1, 29, 0, 0, 0, 0, 28, 
53, 72, 20, 0, 0, 20, 0, 29, 96, 0, 67, 47, 0, 0, 0, 39, 87, 82, 38, 43, 0, 95, 41, 83, 0, 41, 5, 59, 24, 49, 29, -1, 12, 0, 92, 27, 0, 
16, 68, 0, 0, 0, 0, 0, 67, 0, 71, 64, 55, 63, 0, 0, 15, 19, 0, 0, 9, 34, 85, 72, 0, 87, 72, 47, 0, 69, 97, 0, 12, -1, 17, 0, 0, 71, 
0, 0, 35, 93, 96, 34, 33, 0, 90, 0, 0, 0, 0, 0, 41, 96, 93, 38, 41, 28, 82, 26, 0, 0, 0, 73, 0, 0, 0, 0, 0, 0, 17, -1, 0, 0, 67, 
0, 0, 0, 91, 56, 0, 0, 0, 0, 0, 0, 62, 81, 86, 0, 92, 89, 21, 0, 57, 0, 0, 76, 60, 0, 0, 9, 0, 65, 66, 0, 92, 0, 0, -1, 0, 0, 
58, 68, 0, 0, 0, 30, 0, 22, 69, 0, 0, 28, 59, 0, 71, 44, 0, 0, 0, 77, 46, 9, 62, 0, 0, 0, 0, 4, 19, 15, 0, 27, 0, 0, 0, -1, 0, 
9, 76, 8, 63, 29, 0, 0, 0, 37, 0, 0, 92, 56, 0, 0, 3, 0, 2, 76, 42, 0, 0, 49, 0, 3, 5, 11, 0, 93, 0, 28, 0, 71, 67, 0, 0, -1]